(set-info :smt-lib-version 2.6)
(set-logic QF_NIA)
(set-info :source |
Generated by: Cristina Borralleras, Daniel Larraz, Albert Oliveras, Enric Rodriguez-Carbonell, Albert Rubio
Generated on: 2017-04-27
Generator: VeryMax
Application: Termination proving
Target solver: barcelogic
|)
(set-info :license "https://creativecommons.org/licenses/by/4.0/")
(set-info :category "industrial")
(set-info :status sat)
(declare-fun Nl5arg11 () Int)
(declare-fun Nl5arg21 () Int)
(declare-fun Nl5arg31 () Int)
(declare-fun Nl5arg41 () Int)
(declare-fun Nl5arg12 () Int)
(declare-fun Nl5arg22 () Int)
(declare-fun Nl5arg32 () Int)
(declare-fun Nl5arg42 () Int)
(declare-fun lam0n0 () Int)
(declare-fun lam0n1 () Int)
(declare-fun lam0n2 () Int)
(declare-fun lam0n3 () Int)
(declare-fun lam0n4 () Int)
(declare-fun lam0n5 () Int)
(declare-fun lam0n6 () Int)
(declare-fun lam0n7 () Int)
(declare-fun lam0n8 () Int)
(declare-fun lam0n9 () Int)
(declare-fun lam0n10 () Int)
(declare-fun UndefCntr0_CT () Int)
(declare-fun Nl5CT1 () Int)
(declare-fun Nl5CT2 () Int)
(declare-fun UndefCntr0_arg1 () Int)
(declare-fun UndefCntr0_arg2 () Int)
(declare-fun UndefCntr0_arg3 () Int)
(declare-fun UndefCntr0_arg4 () Int)
(declare-fun UndefCntr0_undef49 () Int)
(declare-fun UndefCntr0_undef50 () Int)
(declare-fun UndefCntr0_undef51 () Int)
(declare-fun UndefCntr0_undef52 () Int)
(declare-fun lam1n0 () Int)
(declare-fun lam1n1 () Int)
(declare-fun lam1n2 () Int)
(declare-fun lam1n3 () Int)
(declare-fun lam1n4 () Int)
(declare-fun lam1n5 () Int)
(declare-fun lam1n6 () Int)
(declare-fun lam1n7 () Int)
(declare-fun lam1n8 () Int)
(declare-fun lam1n9 () Int)
(declare-fun lam1n10 () Int)
(declare-fun lam2n0 () Int)
(declare-fun lam2n1 () Int)
(declare-fun lam2n2 () Int)
(declare-fun lam2n3 () Int)
(declare-fun lam2n4 () Int)
(declare-fun lam2n5 () Int)
(declare-fun lam2n6 () Int)
(declare-fun lam2n7 () Int)
(declare-fun lam2n8 () Int)
(declare-fun lam2n9 () Int)
(declare-fun lam2n10 () Int)
(declare-fun lam3n0 () Int)
(declare-fun lam3n1 () Int)
(declare-fun lam3n2 () Int)
(declare-fun lam3n3 () Int)
(declare-fun lam3n4 () Int)
(declare-fun lam3n5 () Int)
(declare-fun lam3n6 () Int)
(declare-fun lam3n7 () Int)
(declare-fun lam3n8 () Int)
(declare-fun lam3n9 () Int)
(declare-fun lam3n10 () Int)
(declare-fun UndefCntr1_CT () Int)
(declare-fun UndefCntr1_arg1 () Int)
(declare-fun UndefCntr1_arg2 () Int)
(declare-fun UndefCntr1_arg3 () Int)
(declare-fun UndefCntr1_arg4 () Int)
(declare-fun UndefCntr1_undef53 () Int)
(declare-fun UndefCntr1_undef54 () Int)
(declare-fun UndefCntr1_undef55 () Int)
(declare-fun UndefCntr1_undef56 () Int)
(declare-fun lam4n0 () Int)
(declare-fun lam4n1 () Int)
(declare-fun lam4n2 () Int)
(declare-fun lam4n3 () Int)
(declare-fun lam4n4 () Int)
(declare-fun lam4n5 () Int)
(declare-fun lam4n6 () Int)
(declare-fun lam4n7 () Int)
(declare-fun lam4n8 () Int)
(declare-fun lam4n9 () Int)
(declare-fun lam4n10 () Int)
(declare-fun lam5n0 () Int)
(declare-fun lam5n1 () Int)
(declare-fun lam5n2 () Int)
(declare-fun lam5n3 () Int)
(declare-fun lam5n4 () Int)
(declare-fun lam5n5 () Int)
(declare-fun lam5n6 () Int)
(declare-fun lam5n7 () Int)
(declare-fun lam5n8 () Int)
(declare-fun lam5n9 () Int)
(declare-fun lam5n10 () Int)
(declare-fun lam6n0 () Int)
(declare-fun lam6n1 () Int)
(declare-fun lam6n2 () Int)
(declare-fun lam6n3 () Int)
(declare-fun lam6n4 () Int)
(declare-fun lam6n5 () Int)
(declare-fun lam6n6 () Int)
(declare-fun lam6n7 () Int)
(declare-fun lam6n8 () Int)
(declare-fun lam6n9 () Int)
(declare-fun lam7n0 () Int)
(declare-fun lam7n1 () Int)
(declare-fun lam7n2 () Int)
(declare-fun lam7n3 () Int)
(declare-fun lam7n4 () Int)
(declare-fun lam7n5 () Int)
(declare-fun lam7n6 () Int)
(declare-fun lam7n7 () Int)
(declare-fun lam7n8 () Int)
(declare-fun lam7n9 () Int)
(declare-fun lam8n0 () Int)
(declare-fun lam8n1 () Int)
(declare-fun lam8n2 () Int)
(declare-fun lam8n3 () Int)
(declare-fun lam8n4 () Int)
(declare-fun lam8n5 () Int)
(declare-fun lam9n0 () Int)
(declare-fun lam9n1 () Int)
(declare-fun lam9n2 () Int)
(declare-fun lam9n3 () Int)
(declare-fun lam9n4 () Int)
(declare-fun lam9n5 () Int)
(declare-fun undef1 () Int)
(declare-fun undef57 () Int)
(declare-fun undef2 () Int)
(declare-fun undef44 () Int)
(declare-fun undef45 () Int)
(declare-fun undef48 () Int)
(declare-fun undef3 () Int)
(declare-fun undef46 () Int)
(declare-fun undef47 () Int)
(declare-fun undef40 () Int)
(declare-fun undef41 () Int)
(declare-fun undef58 () Int)
(declare-fun undef42 () Int)
(declare-fun undef43 () Int)
(declare-fun FV_arg1_2 () Int)
(declare-fun FV_arg2_2 () Int)
(declare-fun FV_arg3_2 () Int)
(declare-fun FV_arg4_2 () Int)
(declare-fun lam10n0 () Int)
(declare-fun lam10n1 () Int)
(declare-fun lam10n2 () Int)
(declare-fun lam10n3 () Int)
(declare-fun lam11n0 () Int)
(declare-fun lam11n1 () Int)
(declare-fun lam11n2 () Int)
(declare-fun lam11n3 () Int)
(declare-fun UndefDef0undef49_CT () Int)
(declare-fun UndefDef0undef49_arg1 () Int)
(declare-fun UndefDef0undef49_arg2 () Int)
(declare-fun UndefDef0undef49_arg3 () Int)
(declare-fun UndefDef0undef49_arg4 () Int)
(declare-fun lam12n0 () Int)
(declare-fun lam12n1 () Int)
(declare-fun lam12n2 () Int)
(declare-fun lam12n3 () Int)
(declare-fun UndefDef0undef50_CT () Int)
(declare-fun UndefDef0undef50_arg1 () Int)
(declare-fun UndefDef0undef50_arg2 () Int)
(declare-fun UndefDef0undef50_arg3 () Int)
(declare-fun UndefDef0undef50_arg4 () Int)
(declare-fun lam13n0 () Int)
(declare-fun lam13n1 () Int)
(declare-fun lam13n2 () Int)
(declare-fun lam13n3 () Int)
(declare-fun lam14n0 () Int)
(declare-fun lam14n1 () Int)
(declare-fun lam14n2 () Int)
(declare-fun lam14n3 () Int)
(declare-fun lam15n0 () Int)
(declare-fun lam15n1 () Int)
(declare-fun lam15n2 () Int)
(declare-fun lam15n3 () Int)
(declare-fun lam16n0 () Int)
(declare-fun lam16n1 () Int)
(declare-fun lam16n2 () Int)
(declare-fun lam16n3 () Int)
(declare-fun lam17n0 () Int)
(declare-fun lam17n1 () Int)
(declare-fun lam17n2 () Int)
(declare-fun lam17n3 () Int)
(declare-fun lam18n0 () Int)
(declare-fun lam18n1 () Int)
(declare-fun lam18n2 () Int)
(declare-fun lam18n3 () Int)
(declare-fun lam19n0 () Int)
(declare-fun lam19n1 () Int)
(declare-fun lam19n2 () Int)
(declare-fun lam19n3 () Int)
(declare-fun UndefDef1undef53_CT () Int)
(declare-fun UndefDef1undef53_arg1 () Int)
(declare-fun UndefDef1undef53_arg2 () Int)
(declare-fun UndefDef1undef53_arg3 () Int)
(declare-fun UndefDef1undef53_arg4 () Int)
(declare-fun lam20n0 () Int)
(declare-fun lam20n1 () Int)
(declare-fun lam20n2 () Int)
(declare-fun lam20n3 () Int)
(declare-fun UndefDef1undef54_CT () Int)
(declare-fun UndefDef1undef54_arg1 () Int)
(declare-fun UndefDef1undef54_arg2 () Int)
(declare-fun UndefDef1undef54_arg3 () Int)
(declare-fun UndefDef1undef54_arg4 () Int)
(declare-fun lam21n0 () Int)
(declare-fun lam21n1 () Int)
(declare-fun lam21n2 () Int)
(declare-fun lam21n3 () Int)
(declare-fun lam22n0 () Int)
(declare-fun lam22n1 () Int)
(declare-fun lam22n2 () Int)
(declare-fun lam22n3 () Int)
(declare-fun lam23n0 () Int)
(declare-fun lam23n1 () Int)
(declare-fun lam23n2 () Int)
(declare-fun lam23n3 () Int)
(declare-fun lam24n0 () Int)
(declare-fun lam24n1 () Int)
(declare-fun lam24n2 () Int)
(declare-fun lam24n3 () Int)
(declare-fun lam25n0 () Int)
(declare-fun lam25n1 () Int)
(declare-fun lam25n2 () Int)
(declare-fun lam25n3 () Int)
(declare-fun lam26n0 () Int)
(declare-fun lam26n1 () Int)
(declare-fun lam26n2 () Int)
(declare-fun lam26n3 () Int)
(declare-fun lam27n0 () Int)
(declare-fun lam27n1 () Int)
(declare-fun lam27n2 () Int)
(declare-fun FV_arg1_3 () Int)
(declare-fun FV_arg2_3 () Int)
(declare-fun FV_arg3_3 () Int)
(declare-fun FV_arg4_3 () Int)
(declare-fun FV_undef49_3 () Int)
(declare-fun FV_undef50_3 () Int)
(declare-fun FV_undef53_3 () Int)
(declare-fun FV_undef54_3 () Int)
(assert ( and ( <= ( - 1 ) Nl5arg11 ) ( <= Nl5arg11 1 ) ( <= ( - 1 ) Nl5arg21 ) ( <= Nl5arg21 1 ) ( <= ( - 1 ) Nl5arg31 ) ( <= Nl5arg31 1 ) ( <= ( - 1 ) Nl5arg41 ) ( <= Nl5arg41 1 ) ( <= ( - 1 ) Nl5arg12 ) ( <= Nl5arg12 1 ) ( <= ( - 1 ) Nl5arg22 ) ( <= Nl5arg22 1 ) ( <= ( - 1 ) Nl5arg32 ) ( <= Nl5arg32 1 ) ( <= ( - 1 ) Nl5arg42 ) ( <= Nl5arg42 1 ) ))
(assert ( or ( and ( >= lam0n0 0 ) ( >= lam0n1 0 ) ( >= lam0n2 0 ) ( >= lam0n3 0 ) ( >= lam0n4 0 ) ( >= lam0n5 0 ) ( >= lam0n6 0 ) ( >= lam0n7 0 ) ( >= lam0n8 0 ) ( >= lam0n9 0 ) ( >= lam0n10 0 ) ( > ( + ( * 2 lam0n2 ) ( * 2 lam0n3 ) ( * 2 lam0n4 ) ( * 2 lam0n5 ) ( * 3 lam0n6 ) ( * 3 lam0n7 ) ( * UndefCntr0_CT lam0n8 ) ( * Nl5CT1 lam0n9 ) ( * Nl5CT2 lam0n10 ) ( - 1 ) ) 0 ) ( = ( + ( * ( - 1 ) lam0n2 ) ( * ( - 1 ) lam0n3 ) ( * ( - 1 ) lam0n6 ) ( * UndefCntr0_arg1 lam0n8 ) ( * Nl5arg11 lam0n9 ) ( * Nl5arg12 lam0n10 ) ) 0 ) ( = ( + ( * ( - 1 ) lam0n4 ) ( * ( - 1 ) lam0n5 ) ( * ( - 1 ) lam0n7 ) ( * UndefCntr0_arg2 lam0n8 ) ( * Nl5arg21 lam0n9 ) ( * Nl5arg22 lam0n10 ) ) 0 ) ( = ( + ( * UndefCntr0_arg3 lam0n8 ) ( * Nl5arg31 lam0n9 ) ( * Nl5arg32 lam0n10 ) ) 0 ) ( = ( + ( * UndefCntr0_arg4 lam0n8 ) ( * Nl5arg41 lam0n9 ) ( * Nl5arg42 lam0n10 ) ) 0 ) ( = ( + ( * ( - 1 ) lam0n0 ) ( * 1 lam0n2 ) ( * 1 lam0n4 ) ( * UndefCntr0_undef49 lam0n8 ) ) 0 ) ( = ( + ( * ( - 1 ) lam0n1 ) ( * 1 lam0n3 ) ( * 1 lam0n5 ) ( * UndefCntr0_undef50 lam0n8 ) ) 0 ) ( = ( * UndefCntr0_undef51 lam0n8 ) 0 ) ( = ( * UndefCntr0_undef52 lam0n8 ) 0 ) ) ( and ( >= lam1n0 0 ) ( >= lam1n1 0 ) ( >= lam1n2 0 ) ( >= lam1n3 0 ) ( >= lam1n4 0 ) ( >= lam1n5 0 ) ( >= lam1n6 0 ) ( >= lam1n7 0 ) ( >= lam1n8 0 ) ( >= lam1n9 0 ) ( >= lam1n10 0 ) ( > ( + ( * 2 lam1n2 ) ( * 2 lam1n3 ) ( * 2 lam1n4 ) ( * 2 lam1n5 ) ( * 3 lam1n6 ) ( * 3 lam1n7 ) ( * UndefCntr0_CT lam1n8 ) ( * Nl5CT1 lam1n9 ) ( * Nl5CT2 lam1n10 ) ( - 1 ( + ( + ( + ( + Nl5CT1 ( * Nl5arg11 0 ) ) ( * Nl5arg21 0 ) ) ( * Nl5arg31 0 ) ) ( * Nl5arg41 0 ) ) ) ) 0 ) ( = ( + ( * ( - 1 ) lam1n2 ) ( * ( - 1 ) lam1n3 ) ( * ( - 1 ) lam1n6 ) ( * UndefCntr0_arg1 lam1n8 ) ( * Nl5arg11 lam1n9 ) ( * Nl5arg12 lam1n10 ) ) 0 ) ( = ( + ( * ( - 1 ) lam1n4 ) ( * ( - 1 ) lam1n5 ) ( * ( - 1 ) lam1n7 ) ( * UndefCntr0_arg2 lam1n8 ) ( * Nl5arg21 lam1n9 ) ( * Nl5arg22 lam1n10 ) ) 0 ) ( = ( + ( * UndefCntr0_arg3 lam1n8 ) ( * Nl5arg31 lam1n9 ) ( * Nl5arg32 lam1n10 ) ) 0 ) ( = ( + ( * UndefCntr0_arg4 lam1n8 ) ( * Nl5arg41 lam1n9 ) ( * Nl5arg42 lam1n10 ) ) 0 ) ( = ( + ( * ( - 1 ) lam1n0 ) ( * 1 lam1n2 ) ( * 1 lam1n4 ) ( * UndefCntr0_undef49 lam1n8 ) ( - ( + 0 ( * Nl5arg11 1 ) ) ) ) 0 ) ( = ( + ( * ( - 1 ) lam1n1 ) ( * 1 lam1n3 ) ( * 1 lam1n5 ) ( * UndefCntr0_undef50 lam1n8 ) ( - ( + 0 ( * Nl5arg21 1 ) ) ) ) 0 ) ( = ( + ( * UndefCntr0_undef51 lam1n8 ) ( - ( + 0 ( * Nl5arg31 1 ) ) ) ) 0 ) ( = ( + ( * UndefCntr0_undef52 lam1n8 ) ( - ( + 0 ( * Nl5arg41 1 ) ) ) ) 0 ) ) ))
(assert ( or ( and ( >= lam0n0 0 ) ( >= lam0n1 0 ) ( >= lam0n2 0 ) ( >= lam0n3 0 ) ( >= lam0n4 0 ) ( >= lam0n5 0 ) ( >= lam0n6 0 ) ( >= lam0n7 0 ) ( >= lam0n8 0 ) ( >= lam0n9 0 ) ( >= lam0n10 0 ) ( > ( + ( * 2 lam0n2 ) ( * 2 lam0n3 ) ( * 2 lam0n4 ) ( * 2 lam0n5 ) ( * 3 lam0n6 ) ( * 3 lam0n7 ) ( * UndefCntr0_CT lam0n8 ) ( * Nl5CT1 lam0n9 ) ( * Nl5CT2 lam0n10 ) ( - 1 ) ) 0 ) ( = ( + ( * ( - 1 ) lam0n2 ) ( * ( - 1 ) lam0n3 ) ( * ( - 1 ) lam0n6 ) ( * UndefCntr0_arg1 lam0n8 ) ( * Nl5arg11 lam0n9 ) ( * Nl5arg12 lam0n10 ) ) 0 ) ( = ( + ( * ( - 1 ) lam0n4 ) ( * ( - 1 ) lam0n5 ) ( * ( - 1 ) lam0n7 ) ( * UndefCntr0_arg2 lam0n8 ) ( * Nl5arg21 lam0n9 ) ( * Nl5arg22 lam0n10 ) ) 0 ) ( = ( + ( * UndefCntr0_arg3 lam0n8 ) ( * Nl5arg31 lam0n9 ) ( * Nl5arg32 lam0n10 ) ) 0 ) ( = ( + ( * UndefCntr0_arg4 lam0n8 ) ( * Nl5arg41 lam0n9 ) ( * Nl5arg42 lam0n10 ) ) 0 ) ( = ( + ( * ( - 1 ) lam0n0 ) ( * 1 lam0n2 ) ( * 1 lam0n4 ) ( * UndefCntr0_undef49 lam0n8 ) ) 0 ) ( = ( + ( * ( - 1 ) lam0n1 ) ( * 1 lam0n3 ) ( * 1 lam0n5 ) ( * UndefCntr0_undef50 lam0n8 ) ) 0 ) ( = ( * UndefCntr0_undef51 lam0n8 ) 0 ) ( = ( * UndefCntr0_undef52 lam0n8 ) 0 ) ) ( and ( >= lam2n0 0 ) ( >= lam2n1 0 ) ( >= lam2n2 0 ) ( >= lam2n3 0 ) ( >= lam2n4 0 ) ( >= lam2n5 0 ) ( >= lam2n6 0 ) ( >= lam2n7 0 ) ( >= lam2n8 0 ) ( >= lam2n9 0 ) ( >= lam2n10 0 ) ( > ( + ( * 2 lam2n2 ) ( * 2 lam2n3 ) ( * 2 lam2n4 ) ( * 2 lam2n5 ) ( * 3 lam2n6 ) ( * 3 lam2n7 ) ( * UndefCntr0_CT lam2n8 ) ( * Nl5CT1 lam2n9 ) ( * Nl5CT2 lam2n10 ) ( - 1 ( + ( + ( + ( + Nl5CT2 ( * Nl5arg12 0 ) ) ( * Nl5arg22 0 ) ) ( * Nl5arg32 0 ) ) ( * Nl5arg42 0 ) ) ) ) 0 ) ( = ( + ( * ( - 1 ) lam2n2 ) ( * ( - 1 ) lam2n3 ) ( * ( - 1 ) lam2n6 ) ( * UndefCntr0_arg1 lam2n8 ) ( * Nl5arg11 lam2n9 ) ( * Nl5arg12 lam2n10 ) ) 0 ) ( = ( + ( * ( - 1 ) lam2n4 ) ( * ( - 1 ) lam2n5 ) ( * ( - 1 ) lam2n7 ) ( * UndefCntr0_arg2 lam2n8 ) ( * Nl5arg21 lam2n9 ) ( * Nl5arg22 lam2n10 ) ) 0 ) ( = ( + ( * UndefCntr0_arg3 lam2n8 ) ( * Nl5arg31 lam2n9 ) ( * Nl5arg32 lam2n10 ) ) 0 ) ( = ( + ( * UndefCntr0_arg4 lam2n8 ) ( * Nl5arg41 lam2n9 ) ( * Nl5arg42 lam2n10 ) ) 0 ) ( = ( + ( * ( - 1 ) lam2n0 ) ( * 1 lam2n2 ) ( * 1 lam2n4 ) ( * UndefCntr0_undef49 lam2n8 ) ( - ( + 0 ( * Nl5arg12 1 ) ) ) ) 0 ) ( = ( + ( * ( - 1 ) lam2n1 ) ( * 1 lam2n3 ) ( * 1 lam2n5 ) ( * UndefCntr0_undef50 lam2n8 ) ( - ( + 0 ( * Nl5arg22 1 ) ) ) ) 0 ) ( = ( + ( * UndefCntr0_undef51 lam2n8 ) ( - ( + 0 ( * Nl5arg32 1 ) ) ) ) 0 ) ( = ( + ( * UndefCntr0_undef52 lam2n8 ) ( - ( + 0 ( * Nl5arg42 1 ) ) ) ) 0 ) ) ))
(assert ( or ( and ( >= lam3n0 0 ) ( >= lam3n1 0 ) ( >= lam3n2 0 ) ( >= lam3n3 0 ) ( >= lam3n4 0 ) ( >= lam3n5 0 ) ( >= lam3n6 0 ) ( >= lam3n7 0 ) ( >= lam3n8 0 ) ( >= lam3n9 0 ) ( >= lam3n10 0 ) ( > ( + ( * 3 lam3n0 ) ( * 3 lam3n1 ) ( * 3 lam3n2 ) ( * 3 lam3n3 ) ( * ( - 2 ) lam3n4 ) ( * ( - 2 ) lam3n5 ) ( * ( - 2 ) lam3n6 ) ( * ( - 2 ) lam3n7 ) ( * UndefCntr1_CT lam3n8 ) ( * Nl5CT1 lam3n9 ) ( * Nl5CT2 lam3n10 ) ( - 1 ) ) 0 ) ( = ( + ( * ( - 1 ) lam3n0 ) ( * ( - 1 ) lam3n4 ) ( * ( - 1 ) lam3n5 ) ( * UndefCntr1_arg1 lam3n8 ) ( * Nl5arg11 lam3n9 ) ( * Nl5arg12 lam3n10 ) ) 0 ) ( = ( + ( * ( - 1 ) lam3n1 ) ( * ( - 1 ) lam3n6 ) ( * ( - 1 ) lam3n7 ) ( * UndefCntr1_arg2 lam3n8 ) ( * Nl5arg21 lam3n9 ) ( * Nl5arg22 lam3n10 ) ) 0 ) ( = ( + ( * UndefCntr1_arg3 lam3n8 ) ( * Nl5arg31 lam3n9 ) ( * Nl5arg32 lam3n10 ) ) 0 ) ( = ( + ( * UndefCntr1_arg4 lam3n8 ) ( * Nl5arg41 lam3n9 ) ( * Nl5arg42 lam3n10 ) ) 0 ) ( = ( + ( * ( - 1 ) lam3n2 ) ( * 1 lam3n4 ) ( * 1 lam3n6 ) ( * UndefCntr1_undef53 lam3n8 ) ) 0 ) ( = ( + ( * ( - 1 ) lam3n3 ) ( * 1 lam3n5 ) ( * 1 lam3n7 ) ( * UndefCntr1_undef54 lam3n8 ) ) 0 ) ( = ( * UndefCntr1_undef55 lam3n8 ) 0 ) ( = ( * UndefCntr1_undef56 lam3n8 ) 0 ) ) ( and ( >= lam4n0 0 ) ( >= lam4n1 0 ) ( >= lam4n2 0 ) ( >= lam4n3 0 ) ( >= lam4n4 0 ) ( >= lam4n5 0 ) ( >= lam4n6 0 ) ( >= lam4n7 0 ) ( >= lam4n8 0 ) ( >= lam4n9 0 ) ( >= lam4n10 0 ) ( > ( + ( * 3 lam4n0 ) ( * 3 lam4n1 ) ( * 3 lam4n2 ) ( * 3 lam4n3 ) ( * ( - 2 ) lam4n4 ) ( * ( - 2 ) lam4n5 ) ( * ( - 2 ) lam4n6 ) ( * ( - 2 ) lam4n7 ) ( * UndefCntr1_CT lam4n8 ) ( * Nl5CT1 lam4n9 ) ( * Nl5CT2 lam4n10 ) ( - 1 ( + ( + ( + ( + Nl5CT1 ( * Nl5arg11 0 ) ) ( * Nl5arg21 0 ) ) ( * Nl5arg31 0 ) ) ( * Nl5arg41 0 ) ) ) ) 0 ) ( = ( + ( * ( - 1 ) lam4n0 ) ( * ( - 1 ) lam4n4 ) ( * ( - 1 ) lam4n5 ) ( * UndefCntr1_arg1 lam4n8 ) ( * Nl5arg11 lam4n9 ) ( * Nl5arg12 lam4n10 ) ) 0 ) ( = ( + ( * ( - 1 ) lam4n1 ) ( * ( - 1 ) lam4n6 ) ( * ( - 1 ) lam4n7 ) ( * UndefCntr1_arg2 lam4n8 ) ( * Nl5arg21 lam4n9 ) ( * Nl5arg22 lam4n10 ) ) 0 ) ( = ( + ( * UndefCntr1_arg3 lam4n8 ) ( * Nl5arg31 lam4n9 ) ( * Nl5arg32 lam4n10 ) ) 0 ) ( = ( + ( * UndefCntr1_arg4 lam4n8 ) ( * Nl5arg41 lam4n9 ) ( * Nl5arg42 lam4n10 ) ) 0 ) ( = ( + ( * ( - 1 ) lam4n2 ) ( * 1 lam4n4 ) ( * 1 lam4n6 ) ( * UndefCntr1_undef53 lam4n8 ) ( - ( + 0 ( * Nl5arg11 1 ) ) ) ) 0 ) ( = ( + ( * ( - 1 ) lam4n3 ) ( * 1 lam4n5 ) ( * 1 lam4n7 ) ( * UndefCntr1_undef54 lam4n8 ) ( - ( + 0 ( * Nl5arg21 1 ) ) ) ) 0 ) ( = ( + ( * UndefCntr1_undef55 lam4n8 ) ( - ( + 0 ( * Nl5arg31 1 ) ) ) ) 0 ) ( = ( + ( * UndefCntr1_undef56 lam4n8 ) ( - ( + 0 ( * Nl5arg41 1 ) ) ) ) 0 ) ) ))
(assert ( or ( and ( >= lam3n0 0 ) ( >= lam3n1 0 ) ( >= lam3n2 0 ) ( >= lam3n3 0 ) ( >= lam3n4 0 ) ( >= lam3n5 0 ) ( >= lam3n6 0 ) ( >= lam3n7 0 ) ( >= lam3n8 0 ) ( >= lam3n9 0 ) ( >= lam3n10 0 ) ( > ( + ( * 3 lam3n0 ) ( * 3 lam3n1 ) ( * 3 lam3n2 ) ( * 3 lam3n3 ) ( * ( - 2 ) lam3n4 ) ( * ( - 2 ) lam3n5 ) ( * ( - 2 ) lam3n6 ) ( * ( - 2 ) lam3n7 ) ( * UndefCntr1_CT lam3n8 ) ( * Nl5CT1 lam3n9 ) ( * Nl5CT2 lam3n10 ) ( - 1 ) ) 0 ) ( = ( + ( * ( - 1 ) lam3n0 ) ( * ( - 1 ) lam3n4 ) ( * ( - 1 ) lam3n5 ) ( * UndefCntr1_arg1 lam3n8 ) ( * Nl5arg11 lam3n9 ) ( * Nl5arg12 lam3n10 ) ) 0 ) ( = ( + ( * ( - 1 ) lam3n1 ) ( * ( - 1 ) lam3n6 ) ( * ( - 1 ) lam3n7 ) ( * UndefCntr1_arg2 lam3n8 ) ( * Nl5arg21 lam3n9 ) ( * Nl5arg22 lam3n10 ) ) 0 ) ( = ( + ( * UndefCntr1_arg3 lam3n8 ) ( * Nl5arg31 lam3n9 ) ( * Nl5arg32 lam3n10 ) ) 0 ) ( = ( + ( * UndefCntr1_arg4 lam3n8 ) ( * Nl5arg41 lam3n9 ) ( * Nl5arg42 lam3n10 ) ) 0 ) ( = ( + ( * ( - 1 ) lam3n2 ) ( * 1 lam3n4 ) ( * 1 lam3n6 ) ( * UndefCntr1_undef53 lam3n8 ) ) 0 ) ( = ( + ( * ( - 1 ) lam3n3 ) ( * 1 lam3n5 ) ( * 1 lam3n7 ) ( * UndefCntr1_undef54 lam3n8 ) ) 0 ) ( = ( * UndefCntr1_undef55 lam3n8 ) 0 ) ( = ( * UndefCntr1_undef56 lam3n8 ) 0 ) ) ( and ( >= lam5n0 0 ) ( >= lam5n1 0 ) ( >= lam5n2 0 ) ( >= lam5n3 0 ) ( >= lam5n4 0 ) ( >= lam5n5 0 ) ( >= lam5n6 0 ) ( >= lam5n7 0 ) ( >= lam5n8 0 ) ( >= lam5n9 0 ) ( >= lam5n10 0 ) ( > ( + ( * 3 lam5n0 ) ( * 3 lam5n1 ) ( * 3 lam5n2 ) ( * 3 lam5n3 ) ( * ( - 2 ) lam5n4 ) ( * ( - 2 ) lam5n5 ) ( * ( - 2 ) lam5n6 ) ( * ( - 2 ) lam5n7 ) ( * UndefCntr1_CT lam5n8 ) ( * Nl5CT1 lam5n9 ) ( * Nl5CT2 lam5n10 ) ( - 1 ( + ( + ( + ( + Nl5CT2 ( * Nl5arg12 0 ) ) ( * Nl5arg22 0 ) ) ( * Nl5arg32 0 ) ) ( * Nl5arg42 0 ) ) ) ) 0 ) ( = ( + ( * ( - 1 ) lam5n0 ) ( * ( - 1 ) lam5n4 ) ( * ( - 1 ) lam5n5 ) ( * UndefCntr1_arg1 lam5n8 ) ( * Nl5arg11 lam5n9 ) ( * Nl5arg12 lam5n10 ) ) 0 ) ( = ( + ( * ( - 1 ) lam5n1 ) ( * ( - 1 ) lam5n6 ) ( * ( - 1 ) lam5n7 ) ( * UndefCntr1_arg2 lam5n8 ) ( * Nl5arg21 lam5n9 ) ( * Nl5arg22 lam5n10 ) ) 0 ) ( = ( + ( * UndefCntr1_arg3 lam5n8 ) ( * Nl5arg31 lam5n9 ) ( * Nl5arg32 lam5n10 ) ) 0 ) ( = ( + ( * UndefCntr1_arg4 lam5n8 ) ( * Nl5arg41 lam5n9 ) ( * Nl5arg42 lam5n10 ) ) 0 ) ( = ( + ( * ( - 1 ) lam5n2 ) ( * 1 lam5n4 ) ( * 1 lam5n6 ) ( * UndefCntr1_undef53 lam5n8 ) ( - ( + 0 ( * Nl5arg12 1 ) ) ) ) 0 ) ( = ( + ( * ( - 1 ) lam5n3 ) ( * 1 lam5n5 ) ( * 1 lam5n7 ) ( * UndefCntr1_undef54 lam5n8 ) ( - ( + 0 ( * Nl5arg22 1 ) ) ) ) 0 ) ( = ( + ( * UndefCntr1_undef55 lam5n8 ) ( - ( + 0 ( * Nl5arg32 1 ) ) ) ) 0 ) ( = ( + ( * UndefCntr1_undef56 lam5n8 ) ( - ( + 0 ( * Nl5arg42 1 ) ) ) ) 0 ) ) ))
(assert ( and ( <= ( + Nl5CT1 ( * Nl5arg11 FV_arg1_2 ) ( * Nl5arg21 FV_arg2_2 ) ( * Nl5arg31 FV_arg3_2 ) ( * Nl5arg41 FV_arg4_2 ) ) 0 ) ( <= ( + Nl5CT2 ( * Nl5arg12 FV_arg1_2 ) ( * Nl5arg22 FV_arg2_2 ) ( * Nl5arg32 FV_arg3_2 ) ( * Nl5arg42 FV_arg4_2 ) ) 0 ) ))
(assert ( or ( not ( = UndefCntr0_arg1 0 ) ) ( not ( = UndefCntr0_arg2 0 ) ) ( not ( = UndefCntr0_arg3 0 ) ) ( not ( = UndefCntr0_arg4 0 ) ) ( not ( = UndefCntr0_undef49 0 ) ) ( not ( = UndefCntr0_undef50 0 ) ) ( not ( = UndefCntr0_undef51 0 ) ) ( not ( = UndefCntr0_undef52 0 ) ) ( = UndefCntr0_CT 0 ) ))
(assert ( or ( and ( = UndefCntr0_arg1 0 ) ( = UndefCntr0_arg2 0 ) ( = UndefCntr0_arg3 0 ) ( = UndefCntr0_arg4 0 ) ) ( or ( not ( = UndefCntr0_undef49 0 ) ) ( not ( = UndefCntr0_undef50 0 ) ) ( not ( = UndefCntr0_undef51 0 ) ) ( not ( = UndefCntr0_undef52 0 ) ) ) ))
(assert ( or ( not ( = UndefCntr1_arg1 0 ) ) ( not ( = UndefCntr1_arg2 0 ) ) ( not ( = UndefCntr1_arg3 0 ) ) ( not ( = UndefCntr1_arg4 0 ) ) ( not ( = UndefCntr1_undef53 0 ) ) ( not ( = UndefCntr1_undef54 0 ) ) ( not ( = UndefCntr1_undef55 0 ) ) ( not ( = UndefCntr1_undef56 0 ) ) ( = UndefCntr1_CT 0 ) ))
(assert ( or ( and ( = UndefCntr1_arg1 0 ) ( = UndefCntr1_arg2 0 ) ( = UndefCntr1_arg3 0 ) ( = UndefCntr1_arg4 0 ) ) ( or ( not ( = UndefCntr1_undef53 0 ) ) ( not ( = UndefCntr1_undef54 0 ) ) ( not ( = UndefCntr1_undef55 0 ) ) ( not ( = UndefCntr1_undef56 0 ) ) ) ))
(assert ( or ( and ( >= lam10n0 0 ) ( >= lam10n1 0 ) ( >= lam10n2 0 ) ( >= lam10n3 0 ) ( > ( + ( * 3 lam10n0 ) ( * 3 lam10n1 ) ( * Nl5CT1 lam10n2 ) ( * Nl5CT2 lam10n3 ) ( - 1 ) ) 0 ) ( = ( + ( * ( - 1 ) lam10n0 ) ( * Nl5arg11 lam10n2 ) ( * Nl5arg12 lam10n3 ) ) 0 ) ( = ( + ( * ( - 1 ) lam10n1 ) ( * Nl5arg21 lam10n2 ) ( * Nl5arg22 lam10n3 ) ) 0 ) ( = ( + ( * Nl5arg31 lam10n2 ) ( * Nl5arg32 lam10n3 ) ) 0 ) ( = ( + ( * Nl5arg41 lam10n2 ) ( * Nl5arg42 lam10n3 ) ) 0 ) ) ( and ( and ( >= lam11n0 0 ) ( >= lam11n1 0 ) ( >= lam11n2 0 ) ( >= lam11n3 0 ) ( > ( + ( * 3 lam11n0 ) ( * 3 lam11n1 ) ( * Nl5CT1 lam11n2 ) ( * Nl5CT2 lam11n3 ) ( - 1 ( + 0 ( * ( - 1 ) UndefDef0undef49_CT ) ) ) ) 0 ) ( = ( + ( * ( - 1 ) lam11n0 ) ( * Nl5arg11 lam11n2 ) ( * Nl5arg12 lam11n3 ) ( - ( * UndefDef0undef49_arg1 ( - 1 ) ) ) ) 0 ) ( = ( + ( * ( - 1 ) lam11n1 ) ( * Nl5arg21 lam11n2 ) ( * Nl5arg22 lam11n3 ) ( - ( * UndefDef0undef49_arg2 ( - 1 ) ) ) ) 0 ) ( = ( + ( * Nl5arg31 lam11n2 ) ( * Nl5arg32 lam11n3 ) ( - ( * UndefDef0undef49_arg3 ( - 1 ) ) ) ) 0 ) ( = ( + ( * Nl5arg41 lam11n2 ) ( * Nl5arg42 lam11n3 ) ( - ( * UndefDef0undef49_arg4 ( - 1 ) ) ) ) 0 ) ) ( and ( >= lam12n0 0 ) ( >= lam12n1 0 ) ( >= lam12n2 0 ) ( >= lam12n3 0 ) ( > ( + ( * 3 lam12n0 ) ( * 3 lam12n1 ) ( * Nl5CT1 lam12n2 ) ( * Nl5CT2 lam12n3 ) ( - 1 ( + 0 ( * ( - 1 ) UndefDef0undef50_CT ) ) ) ) 0 ) ( = ( + ( * ( - 1 ) lam12n0 ) ( * Nl5arg11 lam12n2 ) ( * Nl5arg12 lam12n3 ) ( - ( * UndefDef0undef50_arg1 ( - 1 ) ) ) ) 0 ) ( = ( + ( * ( - 1 ) lam12n1 ) ( * Nl5arg21 lam12n2 ) ( * Nl5arg22 lam12n3 ) ( - ( * UndefDef0undef50_arg2 ( - 1 ) ) ) ) 0 ) ( = ( + ( * Nl5arg31 lam12n2 ) ( * Nl5arg32 lam12n3 ) ( - ( * UndefDef0undef50_arg3 ( - 1 ) ) ) ) 0 ) ( = ( + ( * Nl5arg41 lam12n2 ) ( * Nl5arg42 lam12n3 ) ( - ( * UndefDef0undef50_arg4 ( - 1 ) ) ) ) 0 ) ) ( and ( >= lam13n0 0 ) ( >= lam13n1 0 ) ( >= lam13n2 0 ) ( >= lam13n3 0 ) ( > ( + ( * 3 lam13n0 ) ( * 3 lam13n1 ) ( * Nl5CT1 lam13n2 ) ( * Nl5CT2 lam13n3 ) ( - 1 ( + ( + 2 0 ) ( * 1 UndefDef0undef49_CT ) ) ) ) 0 ) ( = ( + ( * ( - 1 ) lam13n0 ) ( * Nl5arg11 lam13n2 ) ( * Nl5arg12 lam13n3 ) ( - ( + ( - 1 ) ( * UndefDef0undef49_arg1 1 ) ) ) ) 0 ) ( = ( + ( * ( - 1 ) lam13n1 ) ( * Nl5arg21 lam13n2 ) ( * Nl5arg22 lam13n3 ) ( - ( * UndefDef0undef49_arg2 1 ) ) ) 0 ) ( = ( + ( * Nl5arg31 lam13n2 ) ( * Nl5arg32 lam13n3 ) ( - ( * UndefDef0undef49_arg3 1 ) ) ) 0 ) ( = ( + ( * Nl5arg41 lam13n2 ) ( * Nl5arg42 lam13n3 ) ( - ( * UndefDef0undef49_arg4 1 ) ) ) 0 ) ) ( and ( >= lam14n0 0 ) ( >= lam14n1 0 ) ( >= lam14n2 0 ) ( >= lam14n3 0 ) ( > ( + ( * 3 lam14n0 ) ( * 3 lam14n1 ) ( * Nl5CT1 lam14n2 ) ( * Nl5CT2 lam14n3 ) ( - 1 ( + ( + 2 0 ) ( * 1 UndefDef0undef50_CT ) ) ) ) 0 ) ( = ( + ( * ( - 1 ) lam14n0 ) ( * Nl5arg11 lam14n2 ) ( * Nl5arg12 lam14n3 ) ( - ( + ( - 1 ) ( * UndefDef0undef50_arg1 1 ) ) ) ) 0 ) ( = ( + ( * ( - 1 ) lam14n1 ) ( * Nl5arg21 lam14n2 ) ( * Nl5arg22 lam14n3 ) ( - ( * UndefDef0undef50_arg2 1 ) ) ) 0 ) ( = ( + ( * Nl5arg31 lam14n2 ) ( * Nl5arg32 lam14n3 ) ( - ( * UndefDef0undef50_arg3 1 ) ) ) 0 ) ( = ( + ( * Nl5arg41 lam14n2 ) ( * Nl5arg42 lam14n3 ) ( - ( * UndefDef0undef50_arg4 1 ) ) ) 0 ) ) ( and ( >= lam15n0 0 ) ( >= lam15n1 0 ) ( >= lam15n2 0 ) ( >= lam15n3 0 ) ( > ( + ( * 3 lam15n0 ) ( * 3 lam15n1 ) ( * Nl5CT1 lam15n2 ) ( * Nl5CT2 lam15n3 ) ( - 1 ( + ( + 2 0 ) ( * 1 UndefDef0undef49_CT ) ) ) ) 0 ) ( = ( + ( * ( - 1 ) lam15n0 ) ( * Nl5arg11 lam15n2 ) ( * Nl5arg12 lam15n3 ) ( - ( * UndefDef0undef49_arg1 1 ) ) ) 0 ) ( = ( + ( * ( - 1 ) lam15n1 ) ( * Nl5arg21 lam15n2 ) ( * Nl5arg22 lam15n3 ) ( - ( + ( - 1 ) ( * UndefDef0undef49_arg2 1 ) ) ) ) 0 ) ( = ( + ( * Nl5arg31 lam15n2 ) ( * Nl5arg32 lam15n3 ) ( - ( * UndefDef0undef49_arg3 1 ) ) ) 0 ) ( = ( + ( * Nl5arg41 lam15n2 ) ( * Nl5arg42 lam15n3 ) ( - ( * UndefDef0undef49_arg4 1 ) ) ) 0 ) ) ( and ( >= lam16n0 0 ) ( >= lam16n1 0 ) ( >= lam16n2 0 ) ( >= lam16n3 0 ) ( > ( + ( * 3 lam16n0 ) ( * 3 lam16n1 ) ( * Nl5CT1 lam16n2 ) ( * Nl5CT2 lam16n3 ) ( - 1 ( + ( + 2 0 ) ( * 1 UndefDef0undef50_CT ) ) ) ) 0 ) ( = ( + ( * ( - 1 ) lam16n0 ) ( * Nl5arg11 lam16n2 ) ( * Nl5arg12 lam16n3 ) ( - ( * UndefDef0undef50_arg1 1 ) ) ) 0 ) ( = ( + ( * ( - 1 ) lam16n1 ) ( * Nl5arg21 lam16n2 ) ( * Nl5arg22 lam16n3 ) ( - ( + ( - 1 ) ( * UndefDef0undef50_arg2 1 ) ) ) ) 0 ) ( = ( + ( * Nl5arg31 lam16n2 ) ( * Nl5arg32 lam16n3 ) ( - ( * UndefDef0undef50_arg3 1 ) ) ) 0 ) ( = ( + ( * Nl5arg41 lam16n2 ) ( * Nl5arg42 lam16n3 ) ( - ( * UndefDef0undef50_arg4 1 ) ) ) 0 ) ) ( or ( and ( = UndefCntr0_undef49 0 ) ( = UndefCntr0_undef50 0 ) ) ( and ( >= lam17n0 0 ) ( >= lam17n1 0 ) ( >= lam17n2 0 ) ( >= lam17n3 0 ) ( > ( + ( * 3 lam17n0 ) ( * 3 lam17n1 ) ( * Nl5CT1 lam17n2 ) ( * Nl5CT2 lam17n3 ) ( - 1 ( + ( + ( + ( + ( + ( + ( + ( + UndefCntr0_CT 0 ) 0 ) 0 ) 0 ) ( * UndefCntr0_undef49 UndefDef0undef49_CT ) ) ( * UndefCntr0_undef50 UndefDef0undef50_CT ) ) 0 ) 0 ) ) ) 0 ) ( = ( + ( * ( - 1 ) lam17n0 ) ( * Nl5arg11 lam17n2 ) ( * Nl5arg12 lam17n3 ) ( - ( + ( + UndefCntr0_arg1 ( * UndefDef0undef49_arg1 UndefCntr0_undef49 ) ) ( * UndefDef0undef50_arg1 UndefCntr0_undef50 ) ) ) ) 0 ) ( = ( + ( * ( - 1 ) lam17n1 ) ( * Nl5arg21 lam17n2 ) ( * Nl5arg22 lam17n3 ) ( - ( + ( + UndefCntr0_arg2 ( * UndefDef0undef49_arg2 UndefCntr0_undef49 ) ) ( * UndefDef0undef50_arg2 UndefCntr0_undef50 ) ) ) ) 0 ) ( = ( + ( * Nl5arg31 lam17n2 ) ( * Nl5arg32 lam17n3 ) ( - ( + ( + UndefCntr0_arg3 ( * UndefDef0undef49_arg3 UndefCntr0_undef49 ) ) ( * UndefDef0undef50_arg3 UndefCntr0_undef50 ) ) ) ) 0 ) ( = ( + ( * Nl5arg41 lam17n2 ) ( * Nl5arg42 lam17n3 ) ( - ( + ( + UndefCntr0_arg4 ( * UndefDef0undef49_arg4 UndefCntr0_undef49 ) ) ( * UndefDef0undef50_arg4 UndefCntr0_undef50 ) ) ) ) 0 ) ( = ( - UndefCntr0_undef51 ) 0 ) ( = ( - UndefCntr0_undef52 ) 0 ) ) ) ) ))
(assert ( or ( and ( >= lam18n0 0 ) ( >= lam18n1 0 ) ( >= lam18n2 0 ) ( >= lam18n3 0 ) ( > ( + ( * 3 lam18n0 ) ( * 3 lam18n1 ) ( * Nl5CT1 lam18n2 ) ( * Nl5CT2 lam18n3 ) ( - 1 ) ) 0 ) ( = ( + ( * ( - 1 ) lam18n0 ) ( * Nl5arg11 lam18n2 ) ( * Nl5arg12 lam18n3 ) ) 0 ) ( = ( + ( * ( - 1 ) lam18n1 ) ( * Nl5arg21 lam18n2 ) ( * Nl5arg22 lam18n3 ) ) 0 ) ( = ( + ( * Nl5arg31 lam18n2 ) ( * Nl5arg32 lam18n3 ) ) 0 ) ( = ( + ( * Nl5arg41 lam18n2 ) ( * Nl5arg42 lam18n3 ) ) 0 ) ) ( and ( and ( >= lam19n0 0 ) ( >= lam19n1 0 ) ( >= lam19n2 0 ) ( >= lam19n3 0 ) ( > ( + ( * 3 lam19n0 ) ( * 3 lam19n1 ) ( * Nl5CT1 lam19n2 ) ( * Nl5CT2 lam19n3 ) ( - 1 ( + 3 ( * ( - 1 ) UndefDef1undef53_CT ) ) ) ) 0 ) ( = ( + ( * ( - 1 ) lam19n0 ) ( * Nl5arg11 lam19n2 ) ( * Nl5arg12 lam19n3 ) ( - ( * UndefDef1undef53_arg1 ( - 1 ) ) ) ) 0 ) ( = ( + ( * ( - 1 ) lam19n1 ) ( * Nl5arg21 lam19n2 ) ( * Nl5arg22 lam19n3 ) ( - ( * UndefDef1undef53_arg2 ( - 1 ) ) ) ) 0 ) ( = ( + ( * Nl5arg31 lam19n2 ) ( * Nl5arg32 lam19n3 ) ( - ( * UndefDef1undef53_arg3 ( - 1 ) ) ) ) 0 ) ( = ( + ( * Nl5arg41 lam19n2 ) ( * Nl5arg42 lam19n3 ) ( - ( * UndefDef1undef53_arg4 ( - 1 ) ) ) ) 0 ) ) ( and ( >= lam20n0 0 ) ( >= lam20n1 0 ) ( >= lam20n2 0 ) ( >= lam20n3 0 ) ( > ( + ( * 3 lam20n0 ) ( * 3 lam20n1 ) ( * Nl5CT1 lam20n2 ) ( * Nl5CT2 lam20n3 ) ( - 1 ( + 3 ( * ( - 1 ) UndefDef1undef54_CT ) ) ) ) 0 ) ( = ( + ( * ( - 1 ) lam20n0 ) ( * Nl5arg11 lam20n2 ) ( * Nl5arg12 lam20n3 ) ( - ( * UndefDef1undef54_arg1 ( - 1 ) ) ) ) 0 ) ( = ( + ( * ( - 1 ) lam20n1 ) ( * Nl5arg21 lam20n2 ) ( * Nl5arg22 lam20n3 ) ( - ( * UndefDef1undef54_arg2 ( - 1 ) ) ) ) 0 ) ( = ( + ( * Nl5arg31 lam20n2 ) ( * Nl5arg32 lam20n3 ) ( - ( * UndefDef1undef54_arg3 ( - 1 ) ) ) ) 0 ) ( = ( + ( * Nl5arg41 lam20n2 ) ( * Nl5arg42 lam20n3 ) ( - ( * UndefDef1undef54_arg4 ( - 1 ) ) ) ) 0 ) ) ( and ( >= lam21n0 0 ) ( >= lam21n1 0 ) ( >= lam21n2 0 ) ( >= lam21n3 0 ) ( > ( + ( * 3 lam21n0 ) ( * 3 lam21n1 ) ( * Nl5CT1 lam21n2 ) ( * Nl5CT2 lam21n3 ) ( - 1 ( + ( + ( - 2 ) 0 ) ( * 1 UndefDef1undef53_CT ) ) ) ) 0 ) ( = ( + ( * ( - 1 ) lam21n0 ) ( * Nl5arg11 lam21n2 ) ( * Nl5arg12 lam21n3 ) ( - ( + ( - 1 ) ( * UndefDef1undef53_arg1 1 ) ) ) ) 0 ) ( = ( + ( * ( - 1 ) lam21n1 ) ( * Nl5arg21 lam21n2 ) ( * Nl5arg22 lam21n3 ) ( - ( * UndefDef1undef53_arg2 1 ) ) ) 0 ) ( = ( + ( * Nl5arg31 lam21n2 ) ( * Nl5arg32 lam21n3 ) ( - ( * UndefDef1undef53_arg3 1 ) ) ) 0 ) ( = ( + ( * Nl5arg41 lam21n2 ) ( * Nl5arg42 lam21n3 ) ( - ( * UndefDef1undef53_arg4 1 ) ) ) 0 ) ) ( and ( >= lam22n0 0 ) ( >= lam22n1 0 ) ( >= lam22n2 0 ) ( >= lam22n3 0 ) ( > ( + ( * 3 lam22n0 ) ( * 3 lam22n1 ) ( * Nl5CT1 lam22n2 ) ( * Nl5CT2 lam22n3 ) ( - 1 ( + ( + ( - 2 ) 0 ) ( * 1 UndefDef1undef54_CT ) ) ) ) 0 ) ( = ( + ( * ( - 1 ) lam22n0 ) ( * Nl5arg11 lam22n2 ) ( * Nl5arg12 lam22n3 ) ( - ( + ( - 1 ) ( * UndefDef1undef54_arg1 1 ) ) ) ) 0 ) ( = ( + ( * ( - 1 ) lam22n1 ) ( * Nl5arg21 lam22n2 ) ( * Nl5arg22 lam22n3 ) ( - ( * UndefDef1undef54_arg2 1 ) ) ) 0 ) ( = ( + ( * Nl5arg31 lam22n2 ) ( * Nl5arg32 lam22n3 ) ( - ( * UndefDef1undef54_arg3 1 ) ) ) 0 ) ( = ( + ( * Nl5arg41 lam22n2 ) ( * Nl5arg42 lam22n3 ) ( - ( * UndefDef1undef54_arg4 1 ) ) ) 0 ) ) ( and ( >= lam23n0 0 ) ( >= lam23n1 0 ) ( >= lam23n2 0 ) ( >= lam23n3 0 ) ( > ( + ( * 3 lam23n0 ) ( * 3 lam23n1 ) ( * Nl5CT1 lam23n2 ) ( * Nl5CT2 lam23n3 ) ( - 1 ( + ( + ( - 2 ) 0 ) ( * 1 UndefDef1undef53_CT ) ) ) ) 0 ) ( = ( + ( * ( - 1 ) lam23n0 ) ( * Nl5arg11 lam23n2 ) ( * Nl5arg12 lam23n3 ) ( - ( * UndefDef1undef53_arg1 1 ) ) ) 0 ) ( = ( + ( * ( - 1 ) lam23n1 ) ( * Nl5arg21 lam23n2 ) ( * Nl5arg22 lam23n3 ) ( - ( + ( - 1 ) ( * UndefDef1undef53_arg2 1 ) ) ) ) 0 ) ( = ( + ( * Nl5arg31 lam23n2 ) ( * Nl5arg32 lam23n3 ) ( - ( * UndefDef1undef53_arg3 1 ) ) ) 0 ) ( = ( + ( * Nl5arg41 lam23n2 ) ( * Nl5arg42 lam23n3 ) ( - ( * UndefDef1undef53_arg4 1 ) ) ) 0 ) ) ( and ( >= lam24n0 0 ) ( >= lam24n1 0 ) ( >= lam24n2 0 ) ( >= lam24n3 0 ) ( > ( + ( * 3 lam24n0 ) ( * 3 lam24n1 ) ( * Nl5CT1 lam24n2 ) ( * Nl5CT2 lam24n3 ) ( - 1 ( + ( + ( - 2 ) 0 ) ( * 1 UndefDef1undef54_CT ) ) ) ) 0 ) ( = ( + ( * ( - 1 ) lam24n0 ) ( * Nl5arg11 lam24n2 ) ( * Nl5arg12 lam24n3 ) ( - ( * UndefDef1undef54_arg1 1 ) ) ) 0 ) ( = ( + ( * ( - 1 ) lam24n1 ) ( * Nl5arg21 lam24n2 ) ( * Nl5arg22 lam24n3 ) ( - ( + ( - 1 ) ( * UndefDef1undef54_arg2 1 ) ) ) ) 0 ) ( = ( + ( * Nl5arg31 lam24n2 ) ( * Nl5arg32 lam24n3 ) ( - ( * UndefDef1undef54_arg3 1 ) ) ) 0 ) ( = ( + ( * Nl5arg41 lam24n2 ) ( * Nl5arg42 lam24n3 ) ( - ( * UndefDef1undef54_arg4 1 ) ) ) 0 ) ) ( or ( and ( = UndefCntr1_undef53 0 ) ( = UndefCntr1_undef54 0 ) ) ( and ( >= lam25n0 0 ) ( >= lam25n1 0 ) ( >= lam25n2 0 ) ( >= lam25n3 0 ) ( > ( + ( * 3 lam25n0 ) ( * 3 lam25n1 ) ( * Nl5CT1 lam25n2 ) ( * Nl5CT2 lam25n3 ) ( - 1 ( + ( + ( + ( + ( + ( + ( + ( + UndefCntr1_CT 0 ) 0 ) 0 ) 0 ) ( * UndefCntr1_undef53 UndefDef1undef53_CT ) ) ( * UndefCntr1_undef54 UndefDef1undef54_CT ) ) 0 ) 0 ) ) ) 0 ) ( = ( + ( * ( - 1 ) lam25n0 ) ( * Nl5arg11 lam25n2 ) ( * Nl5arg12 lam25n3 ) ( - ( + ( + UndefCntr1_arg1 ( * UndefDef1undef53_arg1 UndefCntr1_undef53 ) ) ( * UndefDef1undef54_arg1 UndefCntr1_undef54 ) ) ) ) 0 ) ( = ( + ( * ( - 1 ) lam25n1 ) ( * Nl5arg21 lam25n2 ) ( * Nl5arg22 lam25n3 ) ( - ( + ( + UndefCntr1_arg2 ( * UndefDef1undef53_arg2 UndefCntr1_undef53 ) ) ( * UndefDef1undef54_arg2 UndefCntr1_undef54 ) ) ) ) 0 ) ( = ( + ( * Nl5arg31 lam25n2 ) ( * Nl5arg32 lam25n3 ) ( - ( + ( + UndefCntr1_arg3 ( * UndefDef1undef53_arg3 UndefCntr1_undef53 ) ) ( * UndefDef1undef54_arg3 UndefCntr1_undef54 ) ) ) ) 0 ) ( = ( + ( * Nl5arg41 lam25n2 ) ( * Nl5arg42 lam25n3 ) ( - ( + ( + UndefCntr1_arg4 ( * UndefDef1undef53_arg4 UndefCntr1_undef53 ) ) ( * UndefDef1undef54_arg4 UndefCntr1_undef54 ) ) ) ) 0 ) ( = ( - UndefCntr1_undef55 ) 0 ) ( = ( - UndefCntr1_undef56 ) 0 ) ) ) ) ))
(assert ( or ( and ( >= lam26n0 0 ) ( >= lam26n1 0 ) ( >= lam26n2 0 ) ( >= lam26n3 0 ) ( > ( + ( * 3 lam26n0 ) ( * ( - 2 ) lam26n1 ) ( * Nl5CT1 lam26n2 ) ( * Nl5CT2 lam26n3 ) ( - 1 ) ) 0 ) ( = ( + ( * ( - 1 ) lam26n0 ) ( * Nl5arg11 lam26n2 ) ( * Nl5arg12 lam26n3 ) ) 0 ) ( = ( + ( * 1 lam26n1 ) ( * Nl5arg21 lam26n2 ) ( * Nl5arg22 lam26n3 ) ) 0 ) ( = ( + ( * Nl5arg31 lam26n2 ) ( * Nl5arg32 lam26n3 ) ) 0 ) ( = ( + ( * Nl5arg41 lam26n2 ) ( * Nl5arg42 lam26n3 ) ) 0 ) ) ( and ( >= lam27n0 0 ) ( >= lam27n1 0 ) ( >= lam27n2 0 ) ( > ( + ( * ( - 2 ) lam27n0 ) ( * Nl5CT1 lam27n1 ) ( * Nl5CT2 lam27n2 ) ( - 1 ) ) 0 ) ( = ( + ( * 1 lam27n0 ) ( * Nl5arg11 lam27n1 ) ( * Nl5arg12 lam27n2 ) ) 0 ) ( = ( + ( * Nl5arg21 lam27n1 ) ( * Nl5arg22 lam27n2 ) ) 0 ) ( = ( + ( * Nl5arg31 lam27n1 ) ( * Nl5arg32 lam27n2 ) ) 0 ) ( = ( + ( * Nl5arg41 lam27n1 ) ( * Nl5arg42 lam27n2 ) ) 0 ) ) ))
(assert ( and ( and ( <= ( + Nl5CT1 ( * Nl5arg11 FV_arg1_3 ) ( * Nl5arg21 FV_arg2_3 ) ( * Nl5arg31 FV_arg3_3 ) ( * Nl5arg41 FV_arg4_3 ) ) 0 ) ( <= ( + Nl5CT2 ( * Nl5arg12 FV_arg1_3 ) ( * Nl5arg22 FV_arg2_3 ) ( * Nl5arg32 FV_arg3_3 ) ( * Nl5arg42 FV_arg4_3 ) ) 0 ) ) ( or ( and ( <= ( * ( - 1 ) FV_undef49_3 ) 0 ) ( <= ( * ( - 1 ) FV_undef50_3 ) 0 ) ( <= ( + 2 FV_undef49_3 ( * ( - 1 ) FV_arg1_3 ) ) 0 ) ( <= ( + 2 FV_undef50_3 ( * ( - 1 ) FV_arg1_3 ) ) 0 ) ( <= ( + 2 FV_undef49_3 ( * ( - 1 ) FV_arg2_3 ) ) 0 ) ( <= ( + 2 FV_undef50_3 ( * ( - 1 ) FV_arg2_3 ) ) 0 ) ( <= ( + 3 ( * ( - 1 ) FV_arg1_3 ) ) 0 ) ( <= ( + 3 ( * ( - 1 ) FV_arg2_3 ) ) 0 ) ) ( and ( <= ( + 3 ( * ( - 1 ) FV_arg1_3 ) ) 0 ) ( <= ( + 3 ( * ( - 1 ) FV_arg2_3 ) ) 0 ) ( <= ( + 3 ( * ( - 1 ) FV_undef53_3 ) ) 0 ) ( <= ( + 3 ( * ( - 1 ) FV_undef54_3 ) ) 0 ) ( <= ( + ( - 2 ) ( * ( - 1 ) FV_arg1_3 ) FV_undef53_3 ) 0 ) ( <= ( + ( - 2 ) ( * ( - 1 ) FV_arg1_3 ) FV_undef54_3 ) 0 ) ( <= ( + ( - 2 ) ( * ( - 1 ) FV_arg2_3 ) FV_undef53_3 ) 0 ) ( <= ( + ( - 2 ) ( * ( - 1 ) FV_arg2_3 ) FV_undef54_3 ) 0 ) ) ) ))
(check-sat)
(exit)
